(set-info :source |printed by MathSAT|)
(declare-fun |!{SIZE}| () Int)
(declare-fun |!{SIZE}.next| () Int)
(declare-fun |!{i}| () Int)
(declare-fun |!{i}.next| () Int)
(declare-fun |!{a.1}| () (Array Int Int))
(declare-fun |!{a.1}.next| () (Array Int Int))
(declare-fun |!{b.2}| () (Array Int Int))
(declare-fun |!{b.2}.next| () (Array Int Int))
(declare-fun |!pc[0]| () Bool)
(declare-fun |!pc[0].next| () Bool)
(declare-fun |!pc[1]| () Bool)
(declare-fun |!pc[1].next| () Bool)
(declare-fun |!pc[2]| () Bool)
(declare-fun |!pc[2].next| () Bool)
(declare-fun |%{a.1}#1| () (Array Int Int))
(declare-fun |%{b.2}#1| () (Array Int Int))
(declare-fun nondet_int<0> () Int)
(declare-fun nondet_char<0> () Int)
(declare-fun |%{b.2}#2| () (Array Int Int))
(define-fun .def_29 () Bool (! |!pc[2]| :next |!pc[2].next|))
(define-fun .def_34 () Bool (not .def_29))
(define-fun .def_27 () Bool (! |!pc[1]| :next |!pc[1].next|))
(define-fun .def_32 () Bool (not .def_27))
(define-fun .def_25 () Bool (! |!pc[0]| :next |!pc[0].next|))
(define-fun .def_31 () Bool (not .def_25))
(define-fun .def_33 () Bool (and .def_31 .def_32))
(define-fun .def_35 () Bool (! (and .def_33 .def_34) :init true))
(define-fun .def_156 () Bool (and .def_25 .def_32))
(define-fun .def_157 () Bool (and .def_34 .def_156))
(define-fun .def_105 () Bool (not |!pc[0].next|))
(define-fun .def_106 () Bool (and |!pc[1].next| .def_105))
(define-fun .def_55 () Bool (not |!pc[2].next|))
(define-fun .def_107 () Bool (and .def_55 .def_106))
(define-fun .def_160 () Bool (and .def_107 .def_157))
(define-fun .def_8 () Int (! |!{SIZE}| :next |!{SIZE}.next|))
(define-fun .def_77 () Bool (= .def_8 |!{SIZE}.next|))
(define-fun .def_46 () Bool (= |!{i}.next| 0))
(define-fun .def_152 () Bool (and .def_46 .def_77))
(define-fun .def_12 () (Array Int Int) (! |!{a.1}| :next |!{a.1}.next|))
(define-fun .def_80 () Bool (= .def_12 |!{a.1}.next|))
(define-fun .def_153 () Bool (and .def_80 .def_152))
(define-fun .def_14 () (Array Int Int) (! |!{b.2}| :next |!{b.2}.next|))
(define-fun .def_82 () Bool (= .def_14 |!{b.2}.next|))
(define-fun .def_154 () Bool (and .def_82 .def_153))
(define-fun .def_10 () Int (! |!{i}| :next |!{i}.next|))
(define-fun .def_59 () Bool (<= .def_8 .def_10))
(define-fun .def_155 () Bool (and .def_59 .def_154))
(define-fun .def_161 () Bool (and .def_155 .def_160))
(define-fun .def_53 () Bool (not |!pc[1].next|))
(define-fun .def_54 () Bool (and |!pc[0].next| .def_53))
(define-fun .def_56 () Bool (and .def_54 .def_55))
(define-fun .def_158 () Bool (and .def_56 .def_157))
(define-fun .def_145 () Bool (= nondet_char<0> 10))
(define-fun .def_147 () Bool (not .def_145))
(define-fun .def_133 () Bool (= .def_14 |%{b.2}#2|))
(define-fun .def_148 () Bool (and .def_133 .def_147))
(define-fun .def_127 () (Array Int Int) (store .def_14 .def_10 20))
(define-fun .def_134 () Bool (= .def_127 |%{b.2}#2|))
(define-fun .def_146 () Bool (and .def_134 .def_145))
(define-fun .def_149 () Bool (or .def_146 .def_148))
(define-fun .def_141 () Bool (= |!{b.2}.next| |%{b.2}#2|))
(define-fun .def_123 () (Array Int Int) (store .def_12 .def_10 nondet_char<0>))
(define-fun .def_139 () Bool (= |!{a.1}.next| .def_123))
(define-fun .def_88 () Int (* (- 1) |!{i}.next|))
(define-fun .def_89 () Int (+ .def_10 .def_88))
(define-fun .def_90 () Bool (= .def_89 (- 1)))
(define-fun .def_91 () Bool (and .def_77 .def_90))
(define-fun .def_140 () Bool (and .def_91 .def_139))
(define-fun .def_142 () Bool (and .def_140 .def_141))
(define-fun .def_150 () Bool (and .def_142 .def_149))
(define-fun .def_60 () Bool (not .def_59))
(define-fun .def_151 () Bool (and .def_60 .def_150))
(define-fun .def_159 () Bool (and .def_151 .def_158))
(define-fun .def_162 () Bool (or .def_159 .def_161))
(define-fun .def_117 () Bool (and .def_25 .def_27))
(define-fun .def_118 () Bool (and .def_34 .def_117))
(define-fun .def_101 () Bool (and |!pc[0].next| |!pc[1].next|))
(define-fun .def_102 () Bool (and .def_55 .def_101))
(define-fun .def_119 () Bool (and .def_102 .def_118))
(define-fun .def_78 () Bool (= .def_10 |!{i}.next|))
(define-fun .def_79 () Bool (and .def_77 .def_78))
(define-fun .def_81 () Bool (and .def_79 .def_80))
(define-fun .def_83 () Bool (and .def_81 .def_82))
(define-fun .def_120 () Bool (and .def_83 .def_119))
(define-fun .def_111 () Bool (and .def_53 .def_105))
(define-fun .def_112 () Bool (and |!pc[2].next| .def_111))
(define-fun .def_99 () Bool (and .def_27 .def_31))
(define-fun .def_100 () Bool (and .def_34 .def_99))
(define-fun .def_113 () Bool (and .def_100 .def_112))
(define-fun .def_95 () Bool (and .def_59 .def_77))
(define-fun .def_96 () Bool (and .def_78 .def_95))
(define-fun .def_97 () Bool (and .def_80 .def_96))
(define-fun .def_98 () Bool (and .def_82 .def_97))
(define-fun .def_114 () Bool (and .def_98 .def_113))
(define-fun .def_108 () Bool (and .def_100 .def_107))
(define-fun .def_92 () Bool (and .def_80 .def_91))
(define-fun .def_93 () Bool (and .def_82 .def_92))
(define-fun .def_94 () Bool (and .def_60 .def_93))
(define-fun .def_109 () Bool (and .def_94 .def_108))
(define-fun .def_103 () Bool (and .def_100 .def_102))
(define-fun .def_65 () Int (select .def_14 .def_10))
(define-fun .def_67 () Bool (= .def_65 20))
(define-fun .def_68 () Bool (not .def_67))
(define-fun .def_84 () Bool (and .def_68 .def_83))
(define-fun .def_61 () Int (select .def_12 .def_10))
(define-fun .def_63 () Bool (= .def_61 10))
(define-fun .def_85 () Bool (and .def_63 .def_84))
(define-fun .def_86 () Bool (and .def_60 .def_85))
(define-fun .def_104 () Bool (and .def_86 .def_103))
(define-fun .def_110 () Bool (or .def_104 .def_109))
(define-fun .def_115 () Bool (or .def_110 .def_114))
(define-fun .def_57 () Bool (and .def_35 .def_56))
(define-fun .def_50 () Bool (= |!{b.2}.next| |%{b.2}#1|))
(define-fun .def_48 () Bool (= |!{a.1}.next| |%{a.1}#1|))
(define-fun .def_45 () Bool (= |!{SIZE}.next| nondet_int<0>))
(define-fun .def_47 () Bool (and .def_45 .def_46))
(define-fun .def_49 () Bool (and .def_47 .def_48))
(define-fun .def_51 () Bool (and .def_49 .def_50))
(define-fun .def_43 () Bool (<= nondet_int<0> 0))
(define-fun .def_44 () Bool (not .def_43))
(define-fun .def_52 () Bool (and .def_44 .def_51))
(define-fun .def_58 () Bool (and .def_52 .def_57))
(define-fun .def_116 () Bool (or .def_58 .def_115))
(define-fun .def_121 () Bool (or .def_116 .def_120))
(define-fun .def_163 () Bool (! (or .def_121 .def_162) :trans true))
(define-fun .def_164 () Bool (! (not .def_118) :invar-property 0))
(assert true)
